Using license file /home/anupa/gurobi.lic
Academic license - for non-commercial use only
Changed value of parameter NonConvex to 2
   Prev: -1  Min: -1  Max: 2  Default: -1
Parameter NonConvex unchanged
   Value: 2  Min: -1  Max: 2  Default: -1
Changed value of parameter TimeLimit to 120.0
   Prev: inf  Min: 0.0  Max: inf  Default: inf

Gurobi Optimizer version 9.0.0 build v9.0.0rc2 (linux64)
Optimize a model with 38 rows, 56 columns and 103 nonzeros
Model fingerprint: 0xb00b217b
Model has 6 quadratic constraints
Model has 5 general constraints
Variable types: 52 continuous, 4 integer (0 binary)
Coefficient statistics:
  Matrix range     [1e-04, 3e+04]
  QMatrix range    [1e+00, 1e+00]
  QLMatrix range   [1e+00, 1e+00]
  Objective range  [1e+00, 1e+00]
  Bounds range     [1e+00, 3e+04]
  RHS range        [1e+00, 5e+01]

---------------------------------------------------------------------------
Multi-objectives: starting optimization with 2 objectives ... 
---------------------------------------------------------------------------

Multi-objectives: applying initial presolve ...
---------------------------------------------------------------------------

Presolve added 0 rows and 12 columns
Presolve removed 2 rows and 0 columns
Presolve time: 0.00s
Presolved: 60 rows and 69 columns
---------------------------------------------------------------------------

Multi-objectives: optimize objective 1 (ns) ...
---------------------------------------------------------------------------

Presolve removed 8 rows and 6 columns
Presolve time: 0.00s
Presolved: 76 rows, 64 columns, 218 nonzeros
Presolved model has 6 SOS constraint(s)
Presolved model has 6 bilinear constraint(s)
Variable types: 44 continuous, 20 integer (16 binary)

Root relaxation: objective 1.020408e+01, 27 iterations, 0.00 seconds

    Nodes    |    Current Node    |     Objective Bounds      |     Work
 Expl Unexpl |  Obj  Depth IntInf | Incumbent    BestBd   Gap | It/Node Time

     0     0   10.20408    0    8          -   10.20408      -     -    0s
     0     0   10.20408    0    9          -   10.20408      -     -    0s
     0     0   10.20408    0    9          -   10.20408      -     -    0s
     0     0   10.20408    0    8          -   10.20408      -     -    0s
     0     0   10.20408    0    9          -   10.20408      -     -    0s
     0     0   10.20408    0    9          -   10.20408      -     -    0s
     0     2   10.26655    0    9          -   10.26655      -     -    0s
*   83    64               8      17.8571429   10.26655  42.5%   2.6    0s
H   85    70                      14.2857143   10.26655  28.1%   2.6    0s
*  130    80              14      12.5000000   10.26655  17.9%   2.9    0s
*  280    50              14      11.4285714   11.42857  0.00%   2.9    0s

Cutting planes:
  Cover: 1
  Implied bound: 1
  Clique: 1
  MIR: 1
  Flow cover: 2
  RLT: 4

Explored 283 nodes (874 simplex iterations) in 0.03 seconds
Thread count was 12 (of 12 available processors)

Solution count 4: 11.4286 12.5 14.2857 17.8571 

Optimal solution found (tolerance 1.00e-04)
Best objective 1.142857142857e+01, best bound 1.142857142857e+01, gap 0.0000%
---------------------------------------------------------------------------

Multi-objectives: optimize objective 2 (res) ...
---------------------------------------------------------------------------


Loaded user MIP start with objective 168.84

Presolve removed 9 rows and 8 columns
Presolve time: 0.00s
Presolved: 76 rows, 61 columns, 238 nonzeros
Presolved model has 6 bilinear constraint(s)
Variable types: 44 continuous, 17 integer (13 binary)

Root relaxation: objective 1.230769e+02, 61 iterations, 0.00 seconds

    Nodes    |    Current Node    |     Objective Bounds      |     Work
 Expl Unexpl |  Obj  Depth IntInf | Incumbent    BestBd   Gap | It/Node Time

     0     0  123.07694    0   10  168.83953  123.07694  27.1%     -    0s
H    0     0                     168.6951393  123.07694  27.0%     -    0s
     0     0  123.07694    0    8  168.69514  123.07694  27.0%     -    0s
     0     0  128.95675    0    6  168.69514  128.95675  23.6%     -    0s
     0     0  129.34558    0    6  168.69514  129.34558  23.3%     -    0s
     0     0  130.06881    0    6  168.69514  130.06881  22.9%     -    0s
     0     0  130.35765    0    8  168.69514  130.35765  22.7%     -    0s
     0     0  130.35765    0    8  168.69514  130.35765  22.7%     -    0s
     0     0  130.35765    0    8  168.69514  130.35765  22.7%     -    0s
     0     0  137.05119    0    4  168.69514  137.05119  18.8%     -    0s
     0     0  141.88012    0    2  168.69514  141.88012  15.9%     -    0s
     0     0  142.17221    0    5  168.69514  142.17221  15.7%     -    0s
     0     0  142.17823    0    5  168.69514  142.17823  15.7%     -    0s
     0     0  142.21719    0    5  168.69514  142.21719  15.7%     -    0s
     0     0  142.23621    0    5  168.69514  142.23621  15.7%     -    0s
     0     0  142.31273    0    4  168.69514  142.31273  15.6%     -    0s
     0     0  142.31273    0    4  168.69514  142.31273  15.6%     -    0s
     0     2  142.31273    0    4  168.69514  142.31273  15.6%     -    0s
*   11     6               5     155.8849260  154.93266  0.61%   3.0    0s
*   23    11               7     155.0122918  154.96517  0.03%   2.7    0s
H   24     9                     155.0036604  154.96517  0.02%   2.6    0s
*   25     9               8     154.9905346  154.96517  0.02%   2.7    0s
*   26     9               8     154.9695667  154.96517  0.00%   2.7    0s

Cutting planes:
  Gomory: 1
  Implied bound: 1
  MIR: 1
  RLT: 1
  Relax-and-lift: 1
  BQP: 1

Explored 30 nodes (265 simplex iterations) in 0.05 seconds
Thread count was 12 (of 12 available processors)

Solution count 7: 154.97 154.991 155.004 ... 168.84

Optimal solution found (tolerance 1.00e-04)
Best objective 1.549695666544e+02, best bound 1.549651704556e+02, gap 0.0028%

---------------------------------------------------------------------------
Multi-objectives: solved in 0.05 seconds, solution count 10

--------------------------------------------------
Model update took: 2.0503997802734375e-05 seconds
Model optimize took: 0.05485820770263672 seconds
--------------------------------------------------

Solution quality statistics for model netmon :
  Maximum violation:
    Bound       : 0.00000000e+00
    Constraint  : 1.45439216e-12 (accuracy_0_sk_0[1])
    Integrality : 0.00000000e+00

Throughput: 83.32500083324999 Mpps, ns per packet: 12.001200000000003
Resources: 154.96956665439467

Sketch (0) (cm: eps0: 7.500000000000001e-05, del0: 0.05, min_mem: 141.578125)
Par: 1, Rows: 3
0.008    0.009    0.492    0.492    
Total frac: 1.000

Sketch (1) (cm: eps0: 1.25e-06, del0: 0.05, min_mem: 8494.6328125)
Par: 1, Rows: 3
0.500    0.500    0.000    0.000    
Total frac: 1.000

Sketch (2) (cm: eps0: 0.000625, del0: 0.025, min_mem: 16.9921875)
Par: 1, Rows: 4
0.000    0.000    0.500    0.500    
Total frac: 1.000

Device (0) cpu_1:
cores_sketch: 2.0, cores_dpdk: 5.0
Rows total: 1.5235555374295005
Mem total: 12749.799921373782
Throughput: 83.38519617497327

Device (1) cpu_2:
cores_sketch: 2.0, cores_dpdk: 5.0
Rows total: 1.5254376754577643
Mem total: 12741.03488334452
Throughput: 83.32500083324999

Device (2) p4_1:
Rows total: 3.4755033935563677
Mem total: 242.8833788908476
Throughput: 148.0

Device (3) p4_2:
Rows total: 3.4755033935563677
Mem total: 242.8833788908476
Throughput: 148.0
--------------------------------------------------
